0 12 9 20 10 8 5 10 8 6 22 19 20 12 6
7 0 17 11 9 13 19 12 7 10 12 20 11 13 15 
6 5 0 11 4 10 22 19 16 16 13 10 12 8 15 
18 9 20 0 17 14 21 5 12 18 4 14 13 19 15 
6 8 21 6 0 10 6 22 21 16 15 19 14 8 15 
5 7 19 14 4 0 6 5 12 21 22 4 21 19 21 
8 7 16 12 10 10 0 14 15 10 20 6 21 5 9 
8 7 11 5 7 5 5 0 11 7 21 13 5 17 18 
16 4 5 13 4 11 21 11 0 14 15 4 10 9 20 
19 23 10 12 14 17 19 18 16 0 8 11 10 16 10 
7 7 18 12 4 23 5 17 10 14 0 7 11 4 12 
14 7 13 15 7 22 6 22 22 17 9 0 14 15 5 
19 4 9 20 9 23 8 23 4 11 9 23 0 11 17 
8 6 16 22 18 18 14 6 7 17 8 10 12 0 20 
22 19 9 20 7 20 12 12 5 11 5 20 18 10 0